102     4       
10      10      10      10      
0       0       0       0       0       7       2       3       4       5       9       13      17      
4       0       0       1       0       5       6       8       12      14      18      
1       1       0       6       0       6       10      15      16      18      20      23      
9       2       2       0       0       5       7       11      18      19      23      
5       2       0       3       0       5       11      16      18      20      23      
9       0       2       4       0       4       11      15      20      21      
10      3       5       0       0       5       15      20      21      22      27      
4       3       0       0       1       5       16      20      21      22      23      
4       0       4       1       0       3       11      15      21      
4       4       4       0       0       3       11      21      24      
6       0       3       0       1       8       22      25      26      27      30      31      32      36      
1       1       0       5       0       7       21      24      25      26      29      32      46      
9       0       0       1       2       5       20      22      30      31      36      
2       1       2       0       0       4       21      22      26      27      
8       1       0       0       2       9       24      25      26      28      29      32      36      45      46      
6       5       0       0       1       9       24      25      28      29      33      34      36      45      46      
3       2       0       0       1       6       23      24      28      29      34      46      
10      0       4       1       0       5       21      27      32      35      39      
9       3       0       0       2       8       22      31      32      33      34      36      37      50      
1       0       0       3       8       6       26      28      32      35      37      40      
7       0       0       2       2       7       30      31      34      36      37      41      50      
2       1       0       0       2       7       29      35      38      39      44      45      46      
8       0       5       0       3       6       31      32      35      36      37      45      
1       0       0       4       2       7       31      35      39      40      41      44      50      
9       0       2       2       0       7       37      38      39      43      48      50      54      
5       3       0       4       0       5       33      34      42      44      50      
5       0       1       0       2       4       28      40      45      50      
2       3       0       0       1       7       41      43      44      47      48      54      60      
10      0       4       1       0       6       40      42      49      54      55      56      
10      0       1       0       2       10      45      47      49      51      52      53      54      55      56      59      
6       2       4       0       0       4       38      42      43      48      
6       0       0       2       2       7       44      47      49      52      53      54      59      
7       0       1       4       0       9       47      48      51      53      54      55      59      60      62      
9       2       0       0       1       5       43      49      51      55      56      
2       0       2       2       0       5       43      47      54      60      62      
6       2       0       1       0       5       43      47      55      56      62      
10      0       2       0       3       4       44      49      55      59      
4       3       0       0       2       8       51      52      53      55      56      58      60      62      
10      0       0       3       3       7       47      51      53      55      56      60      62      
5       0       0       2       1       6       48      51      53      59      60      62      
1       1       2       0       0       8       51      53      55      56      58      61      62      65      
10      2       0       1       0       6       51      52      53      60      62      63      
5       0       2       1       0       6       52      53      58      59      63      66      
9       3       0       0       1       7       51      56      58      61      62      63      65      
8       3       0       1       0       8       57      58      61      62      63      65      66      68      
5       2       0       4       0       9       57      61      62      63      66      68      71      75      85      
6       0       2       0       2       6       57      58      61      65      66      68      
7       0       0       5       1       3       52      63      70      
1       2       0       2       0       7       60      61      63      66      67      71      75      
10      0       3       3       0       6       59      60      61      63      70      71      
3       0       1       0       1       13      64      66      67      68      69      70      71      72      75      76      79      83      85      
9       3       0       3       0       9       61      64      65      67      68      69      71      75      85      
7       0       2       3       0       5       57      71      75      76      85      
10      5       0       3       0       5       58      69      70      76      83      
1       2       4       0       0       4       57      75      76      85      
3       0       0       1       3       9       64      67      71      72      75      76      79      83      84      
7       2       0       0       3       8       64      67      69      70      72      77      79      83      
4       3       0       0       2       8       64      71      72      73      75      77      79      85      
1       0       3       0       3       9       72      73      75      76      78      79      80      84      95      
4       0       2       3       0       5       64      72      77      79      85      
10      0       2       5       0       7       72      74      76      79      83      84      95      
4       0       0       5       1       6       69      76      78      82      86      95      
10      3       0       3       0       5       69      76      79      83      95      
2       3       3       0       0       6       74      78      80      81      82      95      
7       3       4       0       0       6       76      82      84      86      95      101     
8       1       0       2       0       4       73      81      86      88      
7       0       0       1       2       3       73      86      95      
3       0       2       0       4       7       82      86      87      88      90      94      101     
5       0       3       0       8       6       81      84      88      91      92      94      
6       2       0       1       0       6       80      84      87      88      95      101     
3       0       2       0       5       5       81      86      89      90      91      
10      0       2       0       2       5       81      89      91      92      94      
2       1       0       2       0       5       82      87      90      94      101     
10      2       1       0       0       6       86      88      89      94      99      101     
5       0       0       2       2       6       87      89      91      93      94      101     
9       0       3       4       0       1       77      
10      2       0       0       3       6       88      89      90      94      99      100     
2       1       0       0       2       6       89      93      94      99      100     101     
4       3       0       0       4       4       86      94      99      100     
6       2       0       0       1       5       90      93      94      99      100     
8       0       0       6       4       4       87      93      98      101     
8       0       1       0       3       4       89      91      93      98      
1       0       0       2       2       6       96      97      98      99      100     101     
10      0       2       2       0       4       90      98      99      100     
5       0       2       3       0       4       93      94      97      100     
1       3       0       1       0       2       92      93      
7       4       1       0       0       4       96      97      99      100     
6       0       1       0       3       2       93      98      
3       0       2       0       2       2       96      97      
7       1       0       2       0       2       96      97      
5       6       0       2       0       2       97      99      
5       0       3       1       0       2       97      98      
8       0       0       2       4       1       96      
1       3       0       3       0       1       98      
5       0       3       1       0       1       96      
4       3       0       0       4       1       102     
3       0       5       0       6       1       102     
2       0       0       0       2       1       102     
2       4       0       0       4       1       102     
7       0       2       1       0       1       102     
1       3       4       0       0       1       102     
0       0       0       0       0       0       
